
Gurobi 5.6.0 (linux64) logging started Fri Apr 11 12:28:54 2014


Gurobi 5.6.0 (linux64) logging started Fri Apr 11 12:29:01 2014


Gurobi 5.6.0 (linux64) logging started Fri Apr 11 12:29:26 2014


Gurobi 5.6.0 (linux64) logging started Fri Apr 11 12:29:32 2014


Gurobi 5.6.0 (linux64) logging started Fri Apr 11 12:32:14 2014

